10
2 1 732
3 1 219
3 2 162
4 1 193
4 2 837
4 3 30
5 1 675
5 2 52
5 3 771
5 4 201
6 1 806
6 2 472
6 3 89
6 4 288
6 5 243
7 1 819
7 2 477
7 3 245
7 4 796
7 5 41
7 6 471
8 1 497
8 2 576
8 3 768
8 4 448
8 5 956
8 6 437
8 7 905
9 1 455
9 2 619
9 3 393
9 4 465
9 5 685
9 6 633
9 7 926
9 8 629
